29427
[0, 91, 7, 41, 88, 30, 79, 55, 96, 3, 64, 25, 65, 74, 18, 52, 87, 15, 21, 69, 93, 78, 17, 23, 37, 35, 98, 62, 5, 48, 89, 9, 71, 20, 73, 10, 31, 46, 90, 44, 97, 22, 59, 76, 61, 85, 34, 26, 11, 54, 82, 33, 28, 45, 2, 13, 70, 99, 47, 40, 42, 19, 56, 6, 8, 86, 50, 60, 57, 27, 66, 92, 24, 80, 68, 63, 39, 53, 72, 67, 84, 38, 95, 77, 4, 36, 32, 12, 94, 81, 75, 51, 29, 49, 43, 1, 14, 16, 58, 83]
